13
-1 53 98 1 90 64 90 89 96 76 7 72 16 
53 -1 39 77 80 12 35 38 99 17 56 64 32 
98 39 -1 49 60 27 14 1 48 54 18 5 84 
1 77 49 -1 75 7 84 76 97 65 36 9 84 
90 80 60 75 -1 17 35 4 33 86 20 51 3 
64 12 27 7 17 -1 3 77 96 55 90 91 56 
90 35 14 84 35 3 -1 40 51 35 93 11 85 
89 38 1 76 4 77 40 -1 50 39 13 22 92 
96 99 48 97 33 96 51 50 -1 17 18 87 64 
76 17 54 65 86 55 35 39 17 -1 90 47 99 
7 56 18 36 20 90 93 13 18 90 -1 64 96 
72 64 5 9 51 91 11 22 87 47 64 -1 29 
16 32 84 84 3 56 85 92 64 99 96 29 -1 
